\Problem name: compact

Minimize
OBJROW: C
Subject To
ord(0,1):  x(0,1) - x(0,2) >= 1
ord(0,2):  x(0,0) - x(0,1) >= 9
ord(1,1):  - x(1,0) + x(1,2) >= 2
ord(1,2):  x(1,1) - x(1,2) >= 8
ord(2,1):  x(2,0) - x(2,2) >= 9
ord(2,2):  - x(2,0) + x(2,1) >= 9
triangle2(0,1,0):  y(0,1,0) + y(1,0,0) = 1
triangle2(0,1,1):  y(0,1,1) + y(1,0,1) = 1
triangle2(0,1,2):  y(0,1,2) + y(1,0,2) = 1
triangle2(0,2,0):  y(0,2,0) + y(2,0,0) = 1
triangle2(0,2,1):  y(0,2,1) + y(2,0,1) = 1
triangle2(0,2,2):  y(0,2,2) + y(2,0,2) = 1
triangle2(1,2,0):  y(1,2,0) + y(2,1,0) = 1
triangle2(1,2,1):  y(1,2,1) + y(2,1,1) = 1
triangle2(1,2,2):  y(1,2,2) + y(2,1,2) = 1
MCLinV(0,1,0):  x(0,0) - v(0,1,0) - x(1,0) = 2
MCLinV(1,0,0):  - x(0,0) - v(1,0,0) + x(1,0) = 8
MCLin1(0,1,0):  u(0,1,0) >= -0
MCLin2(0,1,0):  -38 y(1,0,0) - u(0,1,0) <= -0
MCLin3(0,1,0):  54 y(1,0,0) + v(0,1,0) - u(0,1,0) <= 54
MCLin4(0,1,0):  54 y(1,0,0) - u(0,1,0) >= -0
MCLin5(0,1,0):  -38 y(1,0,0) + v(0,1,0) - u(0,1,0) >= -38
MCLin6(1,0,0):  u(1,0,0) >= -0
MCLin7(1,0,0):  -64 y(0,1,0) - u(1,0,0) <= -0
MCLin8(1,0,0):  28 y(0,1,0) + v(1,0,0) - u(1,0,0) <= 28
MCLin9(1,0,0):  28 y(0,1,0) - u(1,0,0) >= -0
MCLin10(1,0,0):  -64 y(0,1,0) + v(1,0,0) - u(1,0,0) >= -64
MCLinV(0,1,1):  x(0,1) - v(0,1,1) - x(1,1) = 8
MCLinV(1,0,1):  - x(0,1) - v(1,0,1) + x(1,1) = 9
MCLin1(0,1,1):  u(0,1,1) >= -0
MCLin2(0,1,1):  -63 y(1,0,1) - u(0,1,1) <= -0
MCLin3(0,1,1):  29 y(1,0,1) + v(0,1,1) - u(0,1,1) <= 29
MCLin4(0,1,1):  29 y(1,0,1) - u(0,1,1) >= -0
MCLin5(0,1,1):  -63 y(1,0,1) + v(0,1,1) - u(0,1,1) >= -63
MCLin6(1,0,1):  u(1,0,1) >= -0
MCLin7(1,0,1):  -46 y(0,1,1) - u(1,0,1) <= -0
MCLin8(1,0,1):  46 y(0,1,1) + v(1,0,1) - u(1,0,1) <= 46
MCLin9(1,0,1):  46 y(0,1,1) - u(1,0,1) >= -0
MCLin10(1,0,1):  -46 y(0,1,1) + v(1,0,1) - u(1,0,1) >= -46
MCLinV(0,1,2):  x(0,2) - v(0,1,2) - x(1,2) = 8
MCLinV(1,0,2):  - x(0,2) - v(1,0,2) + x(1,2) = 1
MCLin1(0,1,2):  u(0,1,2) >= -0
MCLin2(0,1,2):  -56 y(1,0,2) - u(0,1,2) <= -0
MCLin3(0,1,2):  36 y(1,0,2) + v(0,1,2) - u(0,1,2) <= 36
MCLin4(0,1,2):  36 y(1,0,2) - u(0,1,2) >= -0
MCLin5(0,1,2):  -56 y(1,0,2) + v(0,1,2) - u(0,1,2) >= -56
MCLin6(1,0,2):  u(1,0,2) >= -0
MCLin7(1,0,2):  -45 y(0,1,2) - u(1,0,2) <= -0
MCLin8(1,0,2):  47 y(0,1,2) + v(1,0,2) - u(1,0,2) <= 47
MCLin9(1,0,2):  47 y(0,1,2) - u(1,0,2) >= -0
MCLin10(1,0,2):  -45 y(0,1,2) + v(1,0,2) - u(1,0,2) >= -45
MCLinV(0,2,0):  x(0,0) - v(0,2,0) - x(2,0) = 9
MCLinV(2,0,0):  - x(0,0) - v(2,0,0) + x(2,0) = 8
MCLin1(0,2,0):  u(0,2,0) >= -0
MCLin2(0,2,0):  -44 y(2,0,0) - u(0,2,0) <= -0
MCLin3(0,2,0):  38 y(2,0,0) + v(0,2,0) - u(0,2,0) <= 38
MCLin4(0,2,0):  38 y(2,0,0) - u(0,2,0) >= -0
MCLin5(0,2,0):  -44 y(2,0,0) + v(0,2,0) - u(0,2,0) >= -44
MCLin6(2,0,0):  u(2,0,0) >= -0
MCLin7(2,0,0):  -55 y(0,2,0) - u(2,0,0) <= -0
MCLin8(2,0,0):  27 y(0,2,0) + v(2,0,0) - u(2,0,0) <= 27
MCLin9(2,0,0):  27 y(0,2,0) - u(2,0,0) >= -0
MCLin10(2,0,0):  -55 y(0,2,0) + v(2,0,0) - u(2,0,0) >= -55
MCLinV(0,2,1):  x(0,1) - v(0,2,1) - x(2,1) = 10
MCLinV(2,0,1):  - x(0,1) - v(2,0,1) + x(2,1) = 9
MCLin1(0,2,1):  u(0,2,1) >= -0
MCLin2(0,2,1):  -63 y(2,0,1) - u(0,2,1) <= -0
MCLin3(0,2,1):  19 y(2,0,1) + v(0,2,1) - u(0,2,1) <= 19
MCLin4(0,2,1):  19 y(2,0,1) - u(0,2,1) >= -0
MCLin5(0,2,1):  -63 y(2,0,1) + v(0,2,1) - u(0,2,1) >= -63
MCLin6(2,0,1):  u(2,0,1) >= -0
MCLin7(2,0,1):  -38 y(0,2,1) - u(2,0,1) <= -0
MCLin8(2,0,1):  44 y(0,2,1) + v(2,0,1) - u(2,0,1) <= 44
MCLin9(2,0,1):  44 y(0,2,1) - u(2,0,1) >= -0
MCLin10(2,0,1):  -38 y(0,2,1) + v(2,0,1) - u(2,0,1) >= -38
MCLinV(0,2,2):  x(0,2) - v(0,2,2) - x(2,2) = 9
MCLinV(2,0,2):  - x(0,2) - v(2,0,2) + x(2,2) = 1
MCLin1(0,2,2):  u(0,2,2) >= -0
MCLin2(0,2,2):  -45 y(2,0,2) - u(0,2,2) <= -0
MCLin3(0,2,2):  37 y(2,0,2) + v(0,2,2) - u(0,2,2) <= 37
MCLin4(0,2,2):  37 y(2,0,2) - u(0,2,2) >= -0
MCLin5(0,2,2):  -45 y(2,0,2) + v(0,2,2) - u(0,2,2) >= -45
MCLin6(2,0,2):  u(2,0,2) >= -0
MCLin7(2,0,2):  -47 y(0,2,2) - u(2,0,2) <= -0
MCLin8(2,0,2):  35 y(0,2,2) + v(2,0,2) - u(2,0,2) <= 35
MCLin9(2,0,2):  35 y(0,2,2) - u(2,0,2) >= -0
MCLin10(2,0,2):  -47 y(0,2,2) + v(2,0,2) - u(2,0,2) >= -47
MCLinV(1,2,0):  x(1,0) - v(1,2,0) - x(2,0) = 9
MCLinV(2,1,0):  - x(1,0) - v(2,1,0) + x(2,0) = 2
MCLin1(1,2,0):  u(1,2,0) >= -0
MCLin2(1,2,0):  -54 y(2,1,0) - u(1,2,0) <= -0
MCLin3(1,2,0):  28 y(2,1,0) + v(1,2,0) - u(1,2,0) <= 28
MCLin4(1,2,0):  28 y(2,1,0) - u(1,2,0) >= -0
MCLin5(1,2,0):  -54 y(2,1,0) + v(1,2,0) - u(1,2,0) >= -54
MCLin6(2,1,0):  u(2,1,0) >= -0
MCLin7(2,1,0):  -39 y(1,2,0) - u(2,1,0) <= -0
MCLin8(2,1,0):  43 y(1,2,0) + v(2,1,0) - u(2,1,0) <= 43
MCLin9(2,1,0):  43 y(1,2,0) - u(2,1,0) >= -0
MCLin10(2,1,0):  -39 y(1,2,0) + v(2,1,0) - u(2,1,0) >= -39
MCLinV(1,2,1):  x(1,1) - v(1,2,1) - x(2,1) = 10
MCLinV(2,1,1):  - x(1,1) - v(2,1,1) + x(2,1) = 8
MCLin1(1,2,1):  u(1,2,1) >= -0
MCLin2(1,2,1):  -54 y(2,1,1) - u(1,2,1) <= -0
MCLin3(1,2,1):  28 y(2,1,1) + v(1,2,1) - u(1,2,1) <= 28
MCLin4(1,2,1):  28 y(2,1,1) - u(1,2,1) >= -0
MCLin5(1,2,1):  -54 y(2,1,1) + v(1,2,1) - u(1,2,1) >= -54
MCLin6(2,1,1):  u(2,1,1) >= -0
MCLin7(2,1,1):  -46 y(1,2,1) - u(2,1,1) <= -0
MCLin8(2,1,1):  36 y(1,2,1) + v(2,1,1) - u(2,1,1) <= 36
MCLin9(2,1,1):  36 y(1,2,1) - u(2,1,1) >= -0
MCLin10(2,1,1):  -46 y(1,2,1) + v(2,1,1) - u(2,1,1) >= -46
MCLinV(1,2,2):  x(1,2) - v(1,2,2) - x(2,2) = 9
MCLinV(2,1,2):  - x(1,2) - v(2,1,2) + x(2,2) = 8
MCLin1(1,2,2):  u(1,2,2) >= -0
MCLin2(1,2,2):  -43 y(2,1,2) - u(1,2,2) <= -0
MCLin3(1,2,2):  39 y(2,1,2) + v(1,2,2) - u(1,2,2) <= 39
MCLin4(1,2,2):  39 y(2,1,2) - u(1,2,2) >= -0
MCLin5(1,2,2):  -43 y(2,1,2) + v(1,2,2) - u(1,2,2) >= -43
MCLin6(2,1,2):  u(2,1,2) >= -0
MCLin7(2,1,2):  -56 y(1,2,2) - u(2,1,2) <= -0
MCLin8(2,1,2):  26 y(1,2,2) + v(2,1,2) - u(2,1,2) <= 26
MCLin9(2,1,2):  26 y(1,2,2) - u(2,1,2) >= -0
MCLin10(2,1,2):  -56 y(1,2,2) + v(2,1,2) - u(2,1,2) >= -56
makespan(0):  C - x(0,0) >= 8
makespan(1):  C - x(1,1) >= 8
makespan(2):  C - x(2,1) >= 10
cut_clique_0(012,2):  0.11111 x(1,2) + 0.07778 x(2,2) >= 1
cut_clique_1(012,2):  0.11111 x(0,2) + x(2,2) >= 1
cut_clique_2(012,2):  0.01124 x(0,2) + 0.08989 x(1,2) + 0.10112 x(2,2) >= 1
cut_clique_0:  0.01605 x(0,1) + 0.01694 x(1,1) + 0.02118 x(2,1) + 0.43335 x(2,2) >= 1
cut_clique_1:  0.00558 x(0,1) + 0.00146 x(1,1) + 0.00620 x(2,1) + 0.07974 x(1,2) + 0.07088 x(2,2) >= 1
cut_clique_2:  0.01192 x(0,1) + 0.01060 x(1,1) + 0.01325 x(2,1) + 0.03576 x(1,2) + 0.28609 x(2,2) >= 1
Bounds
 0 <= C <= 64
 10 <= x(0,0) <= 56
 0 <= y(0,1,0) <= 1
 0 <= y(1,0,0) <= 1
 -38 <= v(0,1,0) <= 54
 -64 <= v(1,0,0) <= 28
 -640 <= u(0,1,0)
 -640 <= u(1,0,0)
 0 <= y(0,2,0) <= 1
 0 <= y(2,0,0) <= 1
 -44 <= v(0,2,0) <= 38
 -55 <= v(2,0,0) <= 27
 -640 <= u(0,2,0)
 -640 <= u(2,0,0)
 0 <= x(1,0) <= 46
 0 <= y(1,2,0) <= 1
 0 <= y(2,1,0) <= 1
 -54 <= v(1,2,0) <= 28
 -39 <= v(2,1,0) <= 43
 -640 <= u(1,2,0)
 -640 <= u(2,1,0)
 9 <= x(2,0) <= 45
 1 <= x(0,1) <= 47
 0 <= y(0,1,1) <= 1
 0 <= y(1,0,1) <= 1
 -63 <= v(0,1,1) <= 29
 -46 <= v(1,0,1) <= 46
 -640 <= u(0,1,1)
 -640 <= u(1,0,1)
 0 <= y(0,2,1) <= 1
 0 <= y(2,0,1) <= 1
 -63 <= v(0,2,1) <= 19
 -38 <= v(2,0,1) <= 44
 -640 <= u(0,2,1)
 -640 <= u(2,0,1)
 10 <= x(1,1) <= 56
 0 <= y(1,2,1) <= 1
 0 <= y(2,1,1) <= 1
 -54 <= v(1,2,1) <= 28
 -46 <= v(2,1,1) <= 36
 -640 <= u(1,2,1)
 -640 <= u(2,1,1)
 18 <= x(2,1) <= 54
 0 <= x(0,2) <= 46
 0 <= y(0,1,2) <= 1
 0 <= y(1,0,2) <= 1
 -56 <= v(0,1,2) <= 36
 -45 <= v(1,0,2) <= 47
 -640 <= u(0,1,2)
 -640 <= u(1,0,2)
 0 <= y(0,2,2) <= 1
 0 <= y(2,0,2) <= 1
 -45 <= v(0,2,2) <= 37
 -47 <= v(2,0,2) <= 35
 -640 <= u(0,2,2)
 -640 <= u(2,0,2)
 2 <= x(1,2) <= 48
 0 <= y(1,2,2) <= 1
 0 <= y(2,1,2) <= 1
 -43 <= v(1,2,2) <= 39
 -56 <= v(2,1,2) <= 26
 -640 <= u(1,2,2)
 -640 <= u(2,1,2)
 0 <= x(2,2) <= 36
Integers
C x(0,0) y(0,1,0) y(1,0,0) v(0,1,0) v(1,0,0) u(0,1,0) u(1,0,0) y(0,2,0) y(2,0,0) 
v(0,2,0) v(2,0,0) u(0,2,0) u(2,0,0) x(1,0) y(1,2,0) y(2,1,0) v(1,2,0) v(2,1,0) u(1,2,0) 
u(2,1,0) x(2,0) x(0,1) y(0,1,1) y(1,0,1) v(0,1,1) v(1,0,1) u(0,1,1) u(1,0,1) y(0,2,1) 
y(2,0,1) v(0,2,1) v(2,0,1) u(0,2,1) u(2,0,1) x(1,1) y(1,2,1) y(2,1,1) v(1,2,1) v(2,1,1) 
u(1,2,1) u(2,1,1) x(2,1) x(0,2) y(0,1,2) y(1,0,2) v(0,1,2) v(1,0,2) u(0,1,2) u(1,0,2) 
y(0,2,2) y(2,0,2) v(0,2,2) v(2,0,2) u(0,2,2) u(2,0,2) x(1,2) y(1,2,2) y(2,1,2) v(1,2,2) 
v(2,1,2) u(1,2,2) u(2,1,2) x(2,2) 
End
